4 10 100 1 2
0 200
 1 40.00 50.00 0.00 0.00 0.00 0 0 0 1236
 2 45.00 68.00 90.00 10.00 20.00 1 1 1 830 1049
 3 45.00 70.00 90.00 30.00 10.00 1 1 1 756 939
 4 42.00 66.00 90.00 10.00 10.00 1 1 1 16 336
 5 42.00 68.00 90.00 10.00 10.00 1 1 1 643 866
 6 42.00 65.00 90.00 10.00 20.00 1 1 1 15 226
 7 40.00 69.00 90.00 20.00 30.00 1 1 1 499 824
 8 40.00 66.00 90.00 20.00 20.00 1 1 1 87 308
 9 38.00 68.00 90.00 20.00 10.00 1 1 1 150 429
 10 38.00 70.00 90.00 10.00 30.00 1 1 1 429 710
 11 35.00 66.00 90.00 10.00 10.00 1 1 1 279 488
 12 35.00 69.00 90.00 10.00 20.00 1 1 1 363 590
 13 25.00 85.00 90.00 20.00 10.00 1 1 1 547 826
 14 22.00 75.00 90.00 30.00 20.00 1 1 1 30 280
 15 22.00 85.00 90.00 10.00 10.00 1 1 1 489 698
 16 20.00 80.00 90.00 40.00 10.00 1 1 1 318 495
 17 20.00 85.00 90.00 40.00 20.00 1 1 1 394 609
 18 18.00 75.00 90.00 20.00 20.00 1 1 1 33 226
 19 15.00 75.00 90.00 20.00 10.00 1 1 1 68 365
 20 15.00 80.00 90.00 10.00 10.00 1 1 1 176 447
 21 30.00 50.00 90.00 10.00 10.00 1 1 1 10 265
 22 30.00 52.00 90.00 20.00 20.00 1 1 1 836 1043
 23 28.00 52.00 90.00 20.00 30.00 1 1 1 704 991
 24 28.00 55.00 90.00 10.00 10.00 1 1 1 664 845
 25 25.00 50.00 90.00 10.00 40.00 1 1 1 15 333
 26 25.00 52.00 90.00 40.00 10.00 1 1 1 88 305
 27 25.00 55.00 90.00 10.00 10.00 1 1 1 502 821
 28 23.00 52.00 90.00 10.00 10.00 1 1 1 179 398
 29 23.00 55.00 90.00 20.00 20.00 1 1 1 476 663
 30 20.00 50.00 90.00 10.00 10.00 1 1 1 288 475
 31 20.00 55.00 90.00 10.00 30.00 1 1 1 368 585
 32 10.00 35.00 90.00 20.00 10.00 1 1 1 144 293
 33 10.00 40.00 90.00 30.00 30.00 1 1 1 31 309
 34 8.00 40.00 90.00 40.00 10.00 1 1 1 33 313
 35 8.00 45.00 90.00 20.00 10.00 1 1 1 655 912
 36 5.00 35.00 90.00 10.00 10.00 1 1 1 191 436
 37 5.00 45.00 90.00 10.00 10.00 1 1 1 588 793
 38 2.00 40.00 90.00 20.00 10.00 1 1 1 305 512
 39 0.00 40.00 90.00 30.00 20.00 1 1 1 414 587
 40 0.00 45.00 90.00 20.00 10.00 1 1 1 481 710
 41 35.00 30.00 90.00 10.00 40.00 1 1 1 180 405
 42 35.00 32.00 90.00 10.00 10.00 1 1 1 63 338
 43 33.00 32.00 90.00 20.00 40.00 1 1 1 19 345
 44 33.00 35.00 90.00 10.00 10.00 1 1 1 16 273
 45 32.00 30.00 90.00 10.00 30.00 1 1 1 278 493
 46 30.00 30.00 90.00 10.00 30.00 1 1 1 453 688
 47 30.00 32.00 90.00 30.00 30.00 1 1 1 355 602
 48 30.00 35.00 90.00 10.00 10.00 1 1 1 837 1127
 49 28.00 30.00 90.00 10.00 20.00 1 1 1 539 786
 50 28.00 35.00 90.00 10.00 10.00 1 1 1 867 1126
 51 26.00 32.00 90.00 10.00 10.00 1 1 1 719 976
 52 25.00 30.00 90.00 10.00 10.00 1 1 1 635 876
 53 25.00 35.00 90.00 10.00 10.00 1 1 1 825 1056
 54 44.00 5.00 90.00 20.00 40.00 1 1 1 193 440
 55 42.00 10.00 90.00 40.00 10.00 1 1 1 78 365
 56 42.00 15.00 90.00 10.00 10.00 1 1 1 35 287
 57 40.00 5.00 90.00 30.00 10.00 1 1 1 308 513
 58 40.00 15.00 90.00 40.00 10.00 1 1 1 35 246
 59 38.00 5.00 90.00 30.00 30.00 1 1 1 376 629
 60 38.00 15.00 90.00 10.00 10.00 1 1 1 519 872
 61 35.00 5.00 90.00 20.00 40.00 1 1 1 463 728
 62 50.00 30.00 90.00 10.00 10.00 1 1 1 412 729
 63 50.00 35.00 90.00 20.00 30.00 1 1 1 181 398
 64 50.00 40.00 90.00 50.00 10.00 1 1 1 100 289
 65 48.00 30.00 90.00 10.00 10.00 1 1 1 539 786
 66 48.00 40.00 90.00 10.00 40.00 1 1 1 12 223
 67 47.00 35.00 90.00 10.00 20.00 1 1 1 753 948
 68 47.00 40.00 90.00 10.00 10.00 1 1 1 12 275
 69 45.00 30.00 90.00 10.00 10.00 1 1 1 669 842
 70 45.00 35.00 90.00 10.00 20.00 1 1 1 836 1049
 71 95.00 30.00 90.00 30.00 20.00 1 1 1 284 559
 72 95.00 35.00 90.00 20.00 10.00 1 1 1 194 459
 73 53.00 30.00 90.00 10.00 10.00 1 1 1 367 588
 74 92.00 30.00 90.00 10.00 20.00 1 1 1 370 659
 75 53.00 35.00 90.00 50.00 20.00 1 1 1 263 502
 76 45.00 65.00 90.00 20.00 10.00 1 1 1 847 1130
 77 90.00 35.00 90.00 10.00 10.00 1 1 1 119 344
 78 88.00 30.00 90.00 10.00 30.00 1 1 1 469 748
 79 88.00 35.00 90.00 20.00 20.00 1 1 1 50 295
 80 87.00 30.00 90.00 10.00 20.00 1 1 1 573 826
 81 85.00 25.00 90.00 10.00 40.00 1 1 1 694 895
 82 85.00 35.00 90.00 30.00 20.00 1 1 1 47 356
 83 75.00 55.00 90.00 20.00 10.00 1 1 1 293 496
 84 72.00 55.00 90.00 10.00 30.00 1 1 1 154 449
 85 70.00 58.00 90.00 20.00 10.00 1 1 1 360 621
 86 68.00 60.00 90.00 30.00 20.00 1 1 1 470 697
 87 66.00 55.00 90.00 10.00 20.00 1 1 1 76 335
 88 65.00 55.00 90.00 20.00 10.00 1 1 1 25 260
 89 65.00 60.00 90.00 30.00 10.00 1 1 1 551 802
 90 63.00 58.00 90.00 10.00 20.00 1 1 1 640 899
 91 60.00 55.00 90.00 10.00 20.00 1 1 1 20 276
 92 60.00 60.00 90.00 10.00 10.00 1 1 1 756 969
 93 67.00 85.00 90.00 20.00 50.00 1 1 1 257 552
 94 65.00 85.00 90.00 40.00 20.00 1 1 1 409 584
 95 65.00 82.00 90.00 10.00 10.00 1 1 1 209 412
 96 62.00 80.00 90.00 30.00 30.00 1 1 1 130 305
 97 60.00 80.00 90.00 10.00 20.00 1 1 1 36 283
 98 60.00 85.00 90.00 30.00 20.00 1 1 1 470 713
 99 58.00 75.00 90.00 20.00 10.00 1 1 1 30 248
 100 55.00 80.00 90.00 10.00 10.00 1 1 1 628 935
 101 55.00 85.00 90.00 20.00 50.00 1 1 1 530 843
